c NeuroCodeBench 2.0 CNF formula with verdict Sat
p cnf 5 18
-1 -5 0
1 2 0
2 3 -1 -5 0
-4 -3 0
1 -3 -5 -4 0
5 1 3 -4 0
1 5 0
2 -3 0
-1 -3 0
5 1 -2 0
2 1 3 -5 0
-2 -1 -5 0
4 0
4 5 0
2 1 4 -3 0
2 3 4 0
4 3 -2 -5 0
1 3 0
